unsat
(:SPACER-inductive-gen                8
 :SPACER-inductive-gen-weaken-fail    9
 :SPACER-inductive-level              1
 :SPACER-max-depth                    6
 :SPACER-max-query-lvl                6
 :SPACER-non-local-gen                4
 :SPACER-num-active-lemmas            6
 :SPACER-num-ctp-blocked              4
 :SPACER-num-invariants               8
 :SPACER-num-is_invariant             15
 :SPACER-num-lemmas                   18
 :SPACER-num-pobs                     7
 :SPACER-num-propagations             2
 :SPACER-num-queries                  12
 :added-eqs                           3024
 :arith-assert-diseq                  126
 :arith-assert-lower                  1296
 :arith-assert-upper                  1394
 :arith-bound-prop                    206
 :arith-conflicts                     28
 :arith-eq-adapter                    450
 :arith-fixed-eqs                     408
 :arith-num-rows                      126
 :arith-offset-eqs                    108
 :arith-pivots                        484
 :arith-row-summations                3884
 :arith-tableau-max-columns           220
 :arith-tableau-max-rows              126
 :conflicts                           174
 :decisions                           632
 :del-clause                          1866
 :final-checks                        48
 :iuc_solver.num_proxies              21
 :max-memory                          31.06
 :memory                              30.60
 :minimized-lits                      52
 :mk-bool-var                         2686
 :mk-clause                           2198
 :num-allocs                          8669690
 :num-checks                          146
 :pool_solver.checks                  73
 :pool_solver.checks.sat              9
 :pool_solver.checks.undef            15
 :propagations                        4422
 :rlimit-count                        77938
 :time                                0.07
 :time.iuc_solver.get_iuc             0.01
 :time.iuc_solver.get_iuc.hyp_reduce1 0.00
 :time.iuc_solver.get_iuc.hyp_reduce2 0.00
 :time.iuc_solver.get_iuc.learn_core  0.00
 :time.pool_solver.proof              0.00
 :time.pool_solver.smt.total          0.03
 :time.pool_solver.smt.total.sat      0.00
 :time.pool_solver.smt.total.undef    0.01
 :time.spacer.init_rules              0.00
 :time.spacer.mbp                     0.00
 :time.spacer.solve                   0.05
 :time.spacer.solve.propagate         0.01
 :time.spacer.solve.reach             0.04
 :time.spacer.solve.reach.children    0.00
 :time.spacer.solve.reach.cluster     0.00
 :time.spacer.solve.reach.gen.global  0.00
 :time.spacer.solve.reach.gen.ind     0.00)
(:max-memory   31.06
 :memory       30.60
 :num-allocs   8669690
 :rlimit-count 77938
 :time         0.07
 :total-time   0.08)
